
******************************************************************************
This program contains Ipopt, a library for large-scale nonlinear optimization.
 Ipopt is released as open source code under the Eclipse Public License (EPL).
         For more information visit http://projects.coin-or.org/Ipopt
******************************************************************************

This is Ipopt version 3.12.4, running with linear solver mumps.
NOTE: Other linear solvers might be more efficient (see Ipopt documentation).

Number of nonzeros in equality constraint Jacobian...:        0
Number of nonzeros in inequality constraint Jacobian.:        0
Number of nonzeros in Lagrangian Hessian.............:        0

Total number of variables............................:    51225
                     variables with only lower bounds:        0
                variables with lower and upper bounds:        0
                     variables with only upper bounds:        0
Total number of equality constraints.................:        0
Total number of inequality constraints...............:        0
        inequality constraints with only lower bounds:        0
   inequality constraints with lower and upper bounds:        0
        inequality constraints with only upper bounds:        0

iter    objective    inf_pr   inf_du lg(mu)  ||d||  lg(rg) alpha_du alpha_pr  ls
   0 3.1327333e+000 0.00e+000 8.10e-001   0.0 0.00e+000    -  0.00e+000 0.00e+000   0
   1 3.1303598e+000 0.00e+000 8.02e-001 -11.0 8.10e-001    -  1.00e+000 1.00e+000f  1
   2 3.0241972e+000 0.00e+000 1.07e-003 -11.0 7.51e+001    -  1.00e+000 1.00e+000f  1
   3 3.0241971e+000 0.00e+000 5.34e-005 -11.0 9.93e-002    -  1.00e+000 1.00e+000f  1
   4 3.0241971e+000 0.00e+000 1.62e-007 -11.0 5.19e-003    -  1.00e+000 1.00e+000f  1
   5 3.0241971e+000 0.00e+000 1.61e-007 -11.0 1.56e-005    -  1.00e+000 7.81e-003f  8
   6 3.0241971e+000 0.00e+000 1.60e-007 -11.0 1.57e-005    -  1.00e+000 9.77e-004f 11
   7 3.0241971e+000 0.00e+000 1.60e-007 -11.0 1.57e-005    -  1.00e+000 4.88e-004f 12
   8 3.0241971e+000 0.00e+000 1.60e-007 -11.0 1.56e-005    -  1.00e+000 3.05e-005f 16
   9 3.0241971e+000 0.00e+000 1.60e-007 -11.0 1.57e-005    -  1.00e+000 1.91e-006f 20
iter    objective    inf_pr   inf_du lg(mu)  ||d||  lg(rg) alpha_du alpha_pr  ls
  10 3.0241971e+000 0.00e+000 1.60e-007 -11.0 1.55e-005    -  1.00e+000 1.91e-006f 20
  11 3.0241971e+000 0.00e+000 1.60e-007 -11.0 1.55e-005    -  1.00e+000 9.54e-007f 21
